
Gurobi 10.0.1 (win64) logging started Sat Sep  9 01:38:41 2023

Set parameter LogFile to value "results-heuristic-start//log/BA_10_deadline.log"
Gurobi Optimizer version 10.0.1 build v10.0.1rc0 (win64)

CPU model: AMD Ryzen 7 3700X 8-Core Processor, instruction set [SSE2|AVX|AVX2]
Thread count: 8 physical cores, 16 logical processors, using up to 16 threads

Optimize a model with 222 rows, 201 columns and 804 nonzeros
Model fingerprint: 0xfa6c899c
Model has 1 quadratic constraint
Variable types: 24 continuous, 177 integer (176 binary)
Coefficient statistics:
  Matrix range     [1e+00, 1e+06]
  QMatrix range    [1e+00, 1e+00]
  QLMatrix range   [1e+00, 1e+01]
  Objective range  [1e+00, 1e+00]
  Bounds range     [1e+00, 1e+00]
  RHS range        [1e+00, 3e+06]

Warning: Completing partial solution with 165 unfixed non-continuous variables out of 177
User MIP start produced solution with objective 798 (0.00s)
Loaded user MIP start with objective 798

Presolve removed 44 rows and 114 columns
Presolve time: 0.02s
Presolved: 187 rows, 95 columns, 775 nonzeros
Variable types: 32 continuous, 63 integer (62 binary)

Root relaxation: objective 0.000000e+00, 35 iterations, 0.00 seconds (0.00 work units)

    Nodes    |    Current Node    |     Objective Bounds      |     Work
 Expl Unexpl |  Obj  Depth IntInf | Incumbent    BestBd   Gap | It/Node Time

     0     0    0.00000    0    1  798.00000    0.00000   100%     -    0s
H    0     0                      86.0000000    0.00000   100%     -    0s
H    0     0                      85.0000000    0.00000   100%     -    0s
H    0     0                      75.0000000    0.00000   100%     -    0s
H    0     0                      73.0000000    0.00000   100%     -    0s
H    0     0                      50.0000000    0.00000   100%     -    0s
H    0     0                      48.0000000    0.00000   100%     -    0s
     0     0    0.00000    0    4   48.00000    0.00000   100%     -    0s
H    0     0                      47.0000000    0.00000   100%     -    0s
H    0     0                      45.0000000    0.00000   100%     -    0s
     0     0    0.00000    0    6   45.00000    0.00000   100%     -    0s
     0     0    0.00000    0    7   45.00000    0.00000   100%     -    0s
H    0     0                      44.0000000    0.00000   100%     -    0s
H    0     0                      36.0000000    0.00000   100%     -    0s
     0     0    0.00000    0    6   36.00000    0.00000   100%     -    0s
     0     0    0.00000    0    5   36.00000    0.00000   100%     -    0s
H    0     0                      35.0000000    0.00000   100%     -    0s
H    0     0                      34.0000000    0.00000   100%     -    0s
     0     0    0.00000    0   11   34.00000    0.00000   100%     -    0s
     0     0    0.00000    0    9   34.00000    0.00000   100%     -    0s
     0     0    0.00000    0    9   34.00000    0.00000   100%     -    0s
     0     2    0.00000    0    9   34.00000    0.00000   100%     -    0s
H   34    30                      33.0000000    4.00000  87.9%  15.5    0s
*  893   209              18      32.0000000    4.00000  87.5%   5.8    0s
H 8349   286                      31.0000000    4.00000  87.1%   1.1    0s
H11153   374                      29.0000000    7.00775  75.8%   1.1    0s

Cutting planes:
  Learned: 115
  Cover: 30
  Implied bound: 22
  Clique: 1
  MIR: 12
  Flow cover: 22
  Inf proof: 89
  RLT: 9
  Relax-and-lift: 5

Explored 28764 nodes (29072 simplex iterations) in 0.39 seconds (0.23 work units)
Thread count was 16 (of 16 available processors)

Solution count 10: 29 29 31 ... 45

Optimal solution found (tolerance 1.00e-04)
Best objective 2.900000000000e+01, best bound 2.900000000000e+01, gap 0.0000%
Warning: constraint name "precedence between 0,2 to 0,0 if x_[j,l,h,z,i]=1" has a space
Warning: constraint name "precedence between 0,2 to 0,0 if x_[j,l,h,z,i]=1" has a space
Warning: default constraint names used to write mps file
